
******************************************************************************
This program contains Ipopt, a library for large-scale nonlinear optimization.
 Ipopt is released as open source code under the Eclipse Public License (EPL).
         For more information visit http://projects.coin-or.org/Ipopt
******************************************************************************

This is Ipopt version 3.12.6, running with linear solver ma57.

Number of nonzeros in equality constraint Jacobian...:        0
Number of nonzeros in inequality constraint Jacobian.:       22
Number of nonzeros in Lagrangian Hessian.............:       18

Total number of variables............................:        7
                     variables with only lower bounds:        4
                variables with lower and upper bounds:        0
                     variables with only upper bounds:        0
Total number of equality constraints.................:        0
Total number of inequality constraints...............:        5
        inequality constraints with only lower bounds:        5
   inequality constraints with lower and upper bounds:        0
        inequality constraints with only upper bounds:        0

iter    objective    inf_pr   inf_du lg(mu)  ||d||  lg(rg) alpha_du alpha_pr  ls
   0  6.0000000e+00 1.80e+01 1.00e+00  -1.0 0.00e+00    -  0.00e+00 0.00e+00   0
Reallocating memory for MA57: lfact (370)
WARNING: Problem in step computation; switching to emergency mode.
   1r 6.0000000e+00 1.80e+01 9.99e+02   1.3 0.00e+00  20.0 0.00e+00 0.00e+00R  1
WARNING: Problem in step computation; switching to emergency mode.
Restoration phase is called at point that is almost feasible,
  with constraint violation 1.040834e-15. Abort.
Restoration phase in the restoration phase failed.

Number of Iterations....: 1

                                   (scaled)                 (unscaled)
Objective...............:   6.0000000000000000e+00    6.0000000000000000e+00
Dual infeasibility......:   1.0000000000000000e+00    1.0000000000000000e+00
Constraint violation....:   1.8029999959999998e+01    1.8029999959999998e+01
Complementarity.........:   3.8490100019800003e+01    3.8490100019800003e+01
Overall NLP error.......:   3.8490100019800003e+01    3.8490100019800003e+01


Number of objective function evaluations             = 2
Number of objective gradient evaluations             = 2
Number of equality constraint evaluations            = 0
Number of inequality constraint evaluations          = 2
Number of equality constraint Jacobian evaluations   = 0
Number of inequality constraint Jacobian evaluations = 2
Number of Lagrangian Hessian evaluations             = 2
Total CPU secs in IPOPT (w/o function evaluations)   =      0.000
Total CPU secs in NLP function evaluations           =      0.000

EXIT: Restoration Failed!
Note: The following floating-point exceptions are signalling: IEEE_INVALID_FLAG

************************ CUTEst statistics ************************


 Package used            :  IPOPT
 Problem                 :  S365MOD   
 # variables             =               7
 # constraints           =               5
 # objective functions   =        0.5000000E+01
 # objective gradients   =        0.3000000E+01
 # objective Hessians    =        0.2000000E+01
 # Hessian-vector prdct  =        0.0000000E+00
 # constraints functions =        0.6000000E+01
 # constraints gradients =        0.4000000E+01
 # constraints Hessians  =        0.2000000E+01
 Exit code               =              -2
 Final f                 =   0.6000000E+01
 Set up time             =            0.00 seconds
 Solve time              =            0.01 seconds


******************************************************************

System Time =       0.0030000000 s.
